(declare-fun k!4575 () (_ BitVec 8))
(assert (bvsle #x00000021 (concat #x000000 k!4575)))
(assert (let ((a!1 (= ((_ extract 31 7) (bvadd #x00000001 (concat #x000000 k!4575)))
              #b0000000000000000000000000)))
  (and a!1 (bvule (bvadd #b0000001 ((_ extract 6 0) k!4575)) #b1111110))))
(assert (or (bvsle (concat #x000000 k!4575) #x0000002d)
    (bvsle #x0000002f (concat #x000000 k!4575))))
(assert (or (bvsle (concat #x000000 k!4575) #x0000002c)
    (bvsle #x0000002e (concat #x000000 k!4575))))
(assert true)
(assert (or (bvsle k!4575 #x2a) (= k!4575 #x2c) (bvsle #x2e k!4575)))
(assert (or (bvsle k!4575 #x2a) (= k!4575 #x2c) (bvsle #x2e k!4575)))
(assert (and (= ((_ extract 7 4) (bvadd #xd0 k!4575)) #x0)
     (bvule ((_ extract 3 0) k!4575) #x9)))
(assert (let ((a!1 (bvsle #x00000000
                  (bvadd #xffffffd0
                         (concat ((_ extract 7 7) k!4575)
                                 ((_ extract 7 7) k!4575)
                                 ((_ extract 7 7) k!4575)
                                 ((_ extract 7 7) k!4575)
                                 ((_ extract 7 7) k!4575)
                                 ((_ extract 7 7) k!4575)
                                 ((_ extract 7 7) k!4575)
                                 ((_ extract 7 7) k!4575)
                                 ((_ extract 7 7) k!4575)
                                 ((_ extract 7 7) k!4575)
                                 ((_ extract 7 7) k!4575)
                                 ((_ extract 7 7) k!4575)
                                 ((_ extract 7 7) k!4575)
                                 ((_ extract 7 7) k!4575)
                                 ((_ extract 7 7) k!4575)
                                 ((_ extract 7 7) k!4575)
                                 ((_ extract 7 7) k!4575)
                                 ((_ extract 7 7) k!4575)
                                 ((_ extract 7 7) k!4575)
                                 ((_ extract 7 7) k!4575)
                                 ((_ extract 7 7) k!4575)
                                 ((_ extract 7 7) k!4575)
                                 ((_ extract 7 7) k!4575)
                                 ((_ extract 7 7) k!4575)
                                 k!4575)))))
  (or (not a!1) (and (= k!4575 #x30) (= ((_ extract 7 7) k!4575) #b0)))))

(maximize k!4575) 
(set-option :opt.priority box) 
(check-sat)
